(set-logic HORN)

(declare-datatypes ((node 0)) (((node  (data Int) (next Int) (prev Int)))))
(declare-datatypes ((HeapObject 0)) (((O_Int  (getInt Int)) (O_UInt  (getUInt Int)) (O_Addr  (getAddr Int)) (O_node  (getnode node)) (defObj ))))
(declare-datatypes ((Heap 0)) (((HeapCtor  (HeapSize Int) (HeapContents (Array Int HeapObject))))))

(declare-fun |inv_main47| ( Heap Int Int Int Int Int Int Int ) Bool)
(declare-fun |inv_main35| ( Heap Int Int Int Int Int Int Int Int ) Bool)
(declare-fun |inv_main57| ( Heap Int Int Int Int Int Int ) Bool)
(declare-fun |inv_main4| ( Heap Int Int ) Bool)
(declare-fun |inv_main73| ( Heap Int Int Int Int Int Int ) Bool)
(declare-fun |inv_main12| ( Heap Int Int Int Int Int Int ) Bool)
(declare-fun |inv_main44| ( Heap Int Int Int Int Int Int Int ) Bool)
(declare-fun |inv_main49| ( Heap Int Int Int Int Int ) Bool)
(declare-fun |CHC_COMP_FALSE| ( ) Bool)
(declare-fun |inv_main55| ( Heap Int Int Int Int Int Int ) Bool)
(declare-fun |inv_main8| ( Heap Int Int Int Int Int ) Bool)
(declare-fun |inv_main42| ( Heap Int Int Int Int Int Int Int Int ) Bool)
(declare-fun |inv_main19| ( Heap Int Int Int Int Int Int ) Bool)
(declare-fun |inv_main70| ( Heap Int Int Int Int Int Int Int ) Bool)
(declare-fun |inv_main18| ( Heap Int Int Int Int Int Int ) Bool)
(declare-fun |inv_main58| ( Heap Int Int Int Int Int Int Int ) Bool)
(declare-fun |inv_main41| ( Heap Int Int Int Int Int Int Int Int ) Bool)
(declare-fun |inv_main22| ( Heap Int Int Int Int Int Int ) Bool)
(declare-fun |inv_main50| ( Heap Int Int Int Int Int ) Bool)

(assert
  (forall ( (A Heap) (v_1 Int) (v_2 Int) ) 
    (=>
      (and
        (and (= A (HeapCtor 0 ((as const (Array Int HeapObject)) defObj)))
     (= 2 v_1)
     (= 1 v_2))
      )
      (inv_main4 A v_1 v_2)
    )
  )
)
(assert
  (forall ( (A Int) (B Int) (C Int) (D Int) (E Int) (F Int) (G Heap) (H Int) (I Int) (J Int) (K Int) (L Int) (M Int) (N Int) (O Int) (P Heap) ) 
    (=>
      (and
        (inv_main44 P O N M L K J I)
        (let ((a!1 (ite (and (not (<= I 0)) (>= (HeapSize P) I))
                (select (HeapContents P) I)
                defObj)))
(let ((a!2 (O_node (node (data (getnode a!1)) M (prev (getnode a!1))))))
(let ((a!3 (ite (and (not (<= I 0)) (>= (HeapSize P) I))
                (HeapCtor (HeapSize P) (store (HeapContents P) I a!2))
                P)))
  (and (= E N)
       (= D L)
       (= C K)
       (= B J)
       (= A I)
       (not (= H 0))
       (= H M)
       (= G a!3)
       ((_ is O_node) a!1)
       (= F O)))))
      )
      (inv_main47 G F E H D C B A)
    )
  )
)
(assert
  (forall ( (A Int) (B Int) (C Int) (D Int) (E Int) (F Heap) ) 
    (=>
      (and
        (inv_main49 F E D C B A)
        (let ((a!1 (ite (and (not (<= A 0)) (>= (HeapSize F) A))
                (select (HeapContents F) A)
                defObj)))
  (and ((_ is O_node) a!1) (= B (data (getnode a!1)))))
      )
      (inv_main50 F E D C B A)
    )
  )
)
(assert
  (forall ( (A Heap) (B Int) (C Int) (D Int) (E Int) (F Int) (G Int) (H Int) (I Int) (J Heap) ) 
    (=>
      (and
        (inv_main35 J I H G F E D C B)
        (let ((a!1 (ite (and (not (<= B 0)) (>= (HeapSize J) B))
                (select (HeapContents J) B)
                defObj)))
(let ((a!2 (O_node (node (data (getnode a!1)) 0 (prev (getnode a!1))))))
(let ((a!3 (ite (and (not (<= B 0)) (>= (HeapSize J) B))
                (HeapCtor (HeapSize J) (store (HeapContents J) B a!2))
                J)))
  (and ((_ is O_node) a!1) (= A a!3)))))
      )
      (inv_main41 A I H G F E D C B)
    )
  )
)
(assert
  (forall ( (A Int) (B Int) (C Int) (D Int) (E Int) (F Heap) (G Int) (H Int) (I Int) (J Int) (K Int) (L Int) (M Int) (N Heap) ) 
    (=>
      (and
        (inv_main19 N M L K J I H)
        (let ((a!1 (ite (and (not (<= H 0)) (>= (HeapSize N) H))
                (select (HeapContents N) H)
                defObj)))
(let ((a!2 (O_node (node (data (getnode a!1)) (next (getnode a!1)) 0))))
(let ((a!3 (ite (and (not (<= H 0)) (>= (HeapSize N) H))
                (HeapCtor (HeapSize N) (store (HeapContents N) H a!2))
                N)))
  (and (= C K)
       (= B J)
       (= A H)
       (not (= G 0))
       (= G I)
       (= E M)
       (= F a!3)
       ((_ is O_node) a!1)
       (= D L)))))
      )
      (inv_main22 F E D C B G A)
    )
  )
)
(assert
  (forall ( (A Heap) (B Int) (C Int) (D Int) (E Int) (F Int) (G Int) (H Heap) ) 
    (=>
      (and
        (inv_main12 H G F E D C B)
        (let ((a!1 (ite (and (not (<= B 0)) (>= (HeapSize H) B))
                (select (HeapContents H) B)
                defObj)))
(let ((a!2 (O_node (node D (next (getnode a!1)) (prev (getnode a!1))))))
(let ((a!3 (ite (and (not (<= B 0)) (>= (HeapSize H) B))
                (HeapCtor (HeapSize H) (store (HeapContents H) B a!2))
                H)))
  (and ((_ is O_node) a!1) (= A a!3)))))
      )
      (inv_main18 A G F E D C B)
    )
  )
)
(assert
  (forall ( (A Heap) (B Int) (C Int) (D Int) (E Int) (F Int) (G Int) (H Heap) ) 
    (=>
      (and
        (inv_main18 H G F E D C B)
        (let ((a!1 (ite (and (not (<= B 0)) (>= (HeapSize H) B))
                (select (HeapContents H) B)
                defObj)))
(let ((a!2 (O_node (node (data (getnode a!1)) C (prev (getnode a!1))))))
(let ((a!3 (ite (and (not (<= B 0)) (>= (HeapSize H) B))
                (HeapCtor (HeapSize H) (store (HeapContents H) B a!2))
                H)))
  (and ((_ is O_node) a!1) (= A a!3)))))
      )
      (inv_main19 A G F E D C B)
    )
  )
)
(assert
  (forall ( (A Int) (B Int) (C Int) (D Int) (E Int) (F Int) (G Heap) ) 
    (=>
      (and
        (inv_main55 G F E D C B A)
        (not (= B 0))
      )
      (inv_main57 G F E D C B A)
    )
  )
)
(assert
  (forall ( (A Int) (B Int) (C Int) (D Int) (E Int) (F Int) (G Int) (H Heap) (I Int) (J Int) (K Int) (L Int) (M Int) (N Int) (O Int) (P Heap) (v_16 Int) ) 
    (=>
      (and
        (inv_main47 P O N M L K J I)
        (let ((a!1 (ite (and (not (<= M 0)) (>= (HeapSize P) M))
                (select (HeapContents P) M)
                defObj)))
(let ((a!2 (O_node (node (data (getnode a!1)) (next (getnode a!1)) I))))
(let ((a!3 (ite (and (not (<= M 0)) (>= (HeapSize P) M))
                (HeapCtor (HeapSize P) (store (HeapContents P) M a!2))
                P)))
  (and (= E M)
       (= D L)
       (= C K)
       (= B J)
       (= A I)
       (= G O)
       (= H a!3)
       ((_ is O_node) a!1)
       (= F N)
       (= v_16 A)))))
      )
      (inv_main49 H G F A D v_16)
    )
  )
)
(assert
  (forall ( (A Int) (B Int) (C Int) (D Int) (E Int) (F Int) (G Heap) (H Int) (I Int) (J Int) (K Int) (L Int) (M Int) (N Int) (O Int) (P Heap) (v_16 Int) ) 
    (=>
      (and
        (inv_main44 P O N M L K J I)
        (let ((a!1 (ite (and (not (<= I 0)) (>= (HeapSize P) I))
                (select (HeapContents P) I)
                defObj)))
(let ((a!2 (O_node (node (data (getnode a!1)) M (prev (getnode a!1))))))
(let ((a!3 (ite (and (not (<= I 0)) (>= (HeapSize P) I))
                (HeapCtor (HeapSize P) (store (HeapContents P) I a!2))
                P)))
  (and (= E N)
       (= D L)
       (= C K)
       (= B J)
       (= A I)
       (= H 0)
       (= H M)
       (= G a!3)
       ((_ is O_node) a!1)
       (= F O)
       (= v_16 A)))))
      )
      (inv_main49 G F E A D v_16)
    )
  )
)
(assert
  (forall ( (A Int) (B Int) (C Int) (D Int) (E Int) (F Int) (G Int) (H Heap) (I Int) (J Int) (K Int) (L Int) (M Int) (N Int) (O Int) (P Int) (Q Heap) (R Int) (S Int) (T Int) (U Int) (V Int) (W Int) (X Int) (Y Int) (Z Heap) ) 
    (=>
      (and
        (inv_main70 Z Y X W V U T S)
        (let ((a!1 (ite (and (not (<= S 0)) (>= (HeapSize Z) S))
                (select (HeapContents Z) S)
                defObj))
      (a!2 (ite (and (not (<= J 0)) (>= (HeapSize Q) J))
                (HeapCtor (HeapSize Q) (store (HeapContents Q) J defObj))
                Q)))
  (and (= I (next (getnode a!1)))
       (= G P)
       (= F O)
       (= E N)
       (= D M)
       (= C L)
       (= B K)
       (= A J)
       (= P Y)
       (= O X)
       (= N W)
       (= M V)
       (= L U)
       (= K T)
       (not (= R 0))
       (= R I)
       (= H a!2)
       (= Q Z)
       ((_ is O_node) a!1)
       (= J S)))
      )
      (inv_main70 H G F E D C B R)
    )
  )
)
(assert
  (forall ( (A Int) (B Int) (C Int) (D Int) (E Int) (F Int) (G Heap) (v_7 Int) ) 
    (=>
      (and
        (inv_main55 G F E D C B A)
        (and (= B 0) (= A (+ 1 F)) (not (= D 0)) (= v_7 D))
      )
      (inv_main70 G F E D C B A v_7)
    )
  )
)
(assert
  (forall ( (A Int) (B Int) (C Int) (D Int) (E Int) (F Int) (G Int) (H Int) (I Heap) (J Int) (K Int) (L Int) (M Int) (N Int) (O Int) (P Int) (Q Int) (R Heap) ) 
    (=>
      (and
        (inv_main42 R Q P O N M L K J)
        (let ((a!1 (ite (and (not (<= J 0)) (>= (HeapSize R) J))
                (select (HeapContents R) J)
                defObj)))
(let ((a!2 (O_node (node K (next (getnode a!1)) (prev (getnode a!1))))))
(let ((a!3 (ite (and (not (<= J 0)) (>= (HeapSize R) J))
                (HeapCtor (HeapSize R) (store (HeapContents R) J a!2))
                R)))
  (and (= A J)
       (= H Q)
       (= G P)
       (= F O)
       (= E N)
       (= D M)
       (= C L)
       (= I a!3)
       ((_ is O_node) a!1)
       (= B K)))))
      )
      (inv_main44 I H G F E D C A)
    )
  )
)
(assert
  (forall ( (A Int) (B Int) (C Int) (D Int) (E Int) (F Int) (G Int) (H Int) (I Heap) ) 
    (=>
      (and
        (inv_main58 I H G F E D C B)
        (let ((a!1 (ite (and (not (<= D 0)) (>= (HeapSize I) D))
                (select (HeapContents I) D)
                defObj)))
  (and (= A (+ 1 C)) ((_ is O_node) a!1) (= G (data (getnode a!1)))))
      )
      (inv_main55 I H G F E B A)
    )
  )
)
(assert
  (forall ( (A Int) (B Int) (C Int) (D Int) (E Int) (F Int) (G Heap) (H Int) (I Int) (J Int) (K Int) (L Int) (M Heap) (v_13 Int) ) 
    (=>
      (and
        (inv_main50 M L K J I H)
        (let ((a!1 (ite (and (not (<= H 0)) (>= (HeapSize M) H))
                (select (HeapContents M) H)
                defObj)))
  (and (= B H)
       (= A (next (getnode a!1)))
       (= F L)
       (= E K)
       (= D J)
       (= G M)
       ((_ is O_node) a!1)
       (= C I)
       (= 1 v_13)))
      )
      (inv_main55 G F E D C A v_13)
    )
  )
)
(assert
  (forall ( (A Heap) (B Int) (C Int) (D Int) (E Int) (F Int) (G Int) (H Int) (I Int) (J Heap) ) 
    (=>
      (and
        (inv_main41 J I H G F E D C B)
        (let ((a!1 (ite (and (not (<= B 0)) (>= (HeapSize J) B))
                (select (HeapContents J) B)
                defObj)))
(let ((a!2 (O_node (node (data (getnode a!1)) (next (getnode a!1)) 0))))
(let ((a!3 (ite (and (not (<= B 0)) (>= (HeapSize J) B))
                (HeapCtor (HeapSize J) (store (HeapContents J) B a!2))
                J)))
  (and ((_ is O_node) a!1) (= A a!3)))))
      )
      (inv_main42 A I H G F E D C B)
    )
  )
)
(assert
  (forall ( (A Int) (B Int) (C Int) (D Int) (E Int) (F Int) (G Int) (H Heap) ) 
    (=>
      (and
        (inv_main57 H G F E D C B)
        (let ((a!1 (ite (and (not (<= C 0)) (>= (HeapSize H) C))
                (select (HeapContents H) C)
                defObj)))
  (and ((_ is O_node) a!1) (= A (next (getnode a!1)))))
      )
      (inv_main58 H G F E D C B A)
    )
  )
)
(assert
  (forall ( (A Int) (B Int) (C Int) (D Int) (E Int) (F node) (G Heap) (H Int) (I Int) (J Int) (K Int) (L Int) (M Int) (N Heap) ) 
    (=>
      (and
        (inv_main8 N M L K J I)
        (let ((a!1 (HeapCtor (+ 1 (HeapSize N))
                     (store (HeapContents N) (+ 1 (HeapSize N)) (O_node F)))))
  (and (= D L)
       (= C K)
       (= B J)
       (= A I)
       (= H (+ 1 (HeapSize N)))
       (= E M)
       (= G a!1)
       (<= 1 K)
       (not (= 0 H))))
      )
      (inv_main12 G E D C B A H)
    )
  )
)
(assert
  (forall ( (A Int) (B Int) (C Int) (D Int) (E Int) (F Int) (G Int) (H Heap) (I Int) (J Int) (K Int) (L Int) (M Int) (N Int) (O Heap) ) 
    (=>
      (and
        (inv_main22 O N M L K J I)
        (let ((a!1 (ite (and (not (<= J 0)) (>= (HeapSize O) J))
                (select (HeapContents O) J)
                defObj)))
(let ((a!2 (O_node (node (data (getnode a!1)) (next (getnode a!1)) I))))
(let ((a!3 (ite (and (not (<= J 0)) (>= (HeapSize O) J))
                (HeapCtor (HeapSize O) (store (HeapContents O) J a!2))
                O)))
  (and (= D K)
       (= C J)
       (= B I)
       (= A (+ (- 1) E))
       (= G N)
       (= F M)
       (= H a!3)
       ((_ is O_node) a!1)
       (= E L)))))
      )
      (inv_main8 H G F A D B)
    )
  )
)
(assert
  (forall ( (A Int) (B Int) (C Int) (D Int) (E Int) (F Int) (G Heap) (H Int) (I Int) (J Int) (K Int) (L Int) (M Int) (N Int) (O Heap) ) 
    (=>
      (and
        (inv_main19 O N M L K J I)
        (let ((a!1 (ite (and (not (<= I 0)) (>= (HeapSize O) I))
                (select (HeapContents O) I)
                defObj)))
(let ((a!2 (O_node (node (data (getnode a!1)) (next (getnode a!1)) 0))))
(let ((a!3 (ite (and (not (<= I 0)) (>= (HeapSize O) I))
                (HeapCtor (HeapSize O) (store (HeapContents O) I a!2))
                O)))
  (and (= D L)
       (= C K)
       (= B I)
       (= A (+ (- 1) D))
       (= H 0)
       (= H J)
       (= F N)
       (= G a!3)
       ((_ is O_node) a!1)
       (= E M)))))
      )
      (inv_main8 G F E A C B)
    )
  )
)
(assert
  (forall ( (A Int) (B Int) (C Heap) (v_3 Int) (v_4 Int) (v_5 Int) ) 
    (=>
      (and
        (inv_main4 C B A)
        (and (= v_3 B) (= v_4 A) (= 0 v_5))
      )
      (inv_main8 C B A v_3 v_4 v_5)
    )
  )
)
(assert
  (forall ( (A Int) (B Int) (C Int) (D Int) (E Int) (F Int) (G Int) (H Heap) ) 
    (=>
      (and
        (inv_main58 H G F E D C B A)
        (let ((a!1 (ite (and (not (<= C 0)) (>= (HeapSize H) C))
                (select (HeapContents H) C)
                defObj)))
(let ((a!2 (not (= F (data (getnode a!1))))))
  (and ((_ is O_node) a!1) a!2)))
      )
      (inv_main73 H G F E D C B)
    )
  )
)
(assert
  (forall ( (A Int) (B Int) (C Int) (D Int) (E Int) (F Int) (G Heap) ) 
    (=>
      (and
        (inv_main55 G F E D C B A)
        (and (not (= A (+ 1 F))) (= B 0))
      )
      (inv_main73 G F E D C B A)
    )
  )
)
(assert
  (forall ( (A Int) (B Int) (C Int) (D Int) (E Int) (F Int) (G Heap) ) 
    (=>
      (and
        (inv_main49 G F E D C B)
        (let ((a!1 (ite (and (not (<= B 0)) (>= (HeapSize G) B))
                (select (HeapContents G) B)
                defObj)))
(let ((a!2 (not (= C (data (getnode a!1))))))
  (and ((_ is O_node) a!1) a!2)))
      )
      (inv_main73 G F E D C B A)
    )
  )
)
(assert
  (forall ( (A Int) (B Int) (C Int) (D Int) (E Int) (F Int) (G Int) (H node) (I Heap) (J Int) (K Int) (L Int) (M Int) (N Int) (O Int) (P Heap) ) 
    (=>
      (and
        (inv_main8 P O N M L K)
        (let ((a!1 (HeapCtor (+ 1 (HeapSize P))
                     (store (HeapContents P) (+ 1 (HeapSize P)) (O_node H)))))
  (and (= F N)
       (= E K)
       (= D 5)
       (= C 3)
       (= B 5)
       (= A 5)
       (= J (+ 1 (HeapSize P)))
       (= G O)
       (= I a!1)
       (not (<= 1 M))
       (not (= 0 J))))
      )
      (inv_main35 I G F E D C B A J)
    )
  )
)
(assert
  (forall ( (A Int) (B Int) (C Int) (D Int) (E Int) (F Int) (G Heap) ) 
    (=>
      (and
        (inv_main12 G F E D C B A)
        (let ((a!1 (ite (and (not (<= A 0)) (>= (HeapSize G) A))
                (select (HeapContents G) A)
                defObj)))
  (not ((_ is O_node) a!1)))
      )
      CHC_COMP_FALSE
    )
  )
)
(assert
  (forall ( (A Int) (B Int) (C Int) (D Int) (E Int) (F Int) (G Heap) ) 
    (=>
      (and
        (inv_main18 G F E D C B A)
        (let ((a!1 (ite (and (not (<= A 0)) (>= (HeapSize G) A))
                (select (HeapContents G) A)
                defObj)))
  (not ((_ is O_node) a!1)))
      )
      CHC_COMP_FALSE
    )
  )
)
(assert
  (forall ( (A Int) (B Int) (C Int) (D Int) (E Int) (F Int) (G Heap) ) 
    (=>
      (and
        (inv_main19 G F E D C B A)
        (let ((a!1 (ite (and (not (<= A 0)) (>= (HeapSize G) A))
                (select (HeapContents G) A)
                defObj)))
  (not ((_ is O_node) a!1)))
      )
      CHC_COMP_FALSE
    )
  )
)
(assert
  (forall ( (A Int) (B Int) (C Int) (D Int) (E Int) (F Int) (G Heap) ) 
    (=>
      (and
        (inv_main22 G F E D C B A)
        (let ((a!1 (ite (and (not (<= B 0)) (>= (HeapSize G) B))
                (select (HeapContents G) B)
                defObj)))
  (not ((_ is O_node) a!1)))
      )
      CHC_COMP_FALSE
    )
  )
)
(assert
  (forall ( (A Int) (B Int) (C Int) (D Int) (E Int) (F Int) (G Int) (H Int) (I Heap) ) 
    (=>
      (and
        (inv_main35 I H G F E D C B A)
        (let ((a!1 (ite (and (not (<= A 0)) (>= (HeapSize I) A))
                (select (HeapContents I) A)
                defObj)))
  (not ((_ is O_node) a!1)))
      )
      CHC_COMP_FALSE
    )
  )
)
(assert
  (forall ( (A Int) (B Int) (C Int) (D Int) (E Int) (F Int) (G Int) (H Int) (I Heap) ) 
    (=>
      (and
        (inv_main41 I H G F E D C B A)
        (let ((a!1 (ite (and (not (<= A 0)) (>= (HeapSize I) A))
                (select (HeapContents I) A)
                defObj)))
  (not ((_ is O_node) a!1)))
      )
      CHC_COMP_FALSE
    )
  )
)
(assert
  (forall ( (A Int) (B Int) (C Int) (D Int) (E Int) (F Int) (G Int) (H Int) (I Heap) ) 
    (=>
      (and
        (inv_main42 I H G F E D C B A)
        (let ((a!1 (ite (and (not (<= A 0)) (>= (HeapSize I) A))
                (select (HeapContents I) A)
                defObj)))
  (not ((_ is O_node) a!1)))
      )
      CHC_COMP_FALSE
    )
  )
)
(assert
  (forall ( (A Int) (B Int) (C Int) (D Int) (E Int) (F Int) (G Int) (H Heap) ) 
    (=>
      (and
        (inv_main44 H G F E D C B A)
        (let ((a!1 (ite (and (not (<= A 0)) (>= (HeapSize H) A))
                (select (HeapContents H) A)
                defObj)))
  (not ((_ is O_node) a!1)))
      )
      CHC_COMP_FALSE
    )
  )
)
(assert
  (forall ( (A Int) (B Int) (C Int) (D Int) (E Int) (F Int) (G Int) (H Heap) ) 
    (=>
      (and
        (inv_main47 H G F E D C B A)
        (let ((a!1 (ite (and (not (<= E 0)) (>= (HeapSize H) E))
                (select (HeapContents H) E)
                defObj)))
  (not ((_ is O_node) a!1)))
      )
      CHC_COMP_FALSE
    )
  )
)
(assert
  (forall ( (A Int) (B Int) (C Int) (D Int) (E Int) (F Heap) ) 
    (=>
      (and
        (inv_main49 F E D C B A)
        (let ((a!1 (ite (and (not (<= A 0)) (>= (HeapSize F) A))
                (select (HeapContents F) A)
                defObj)))
  (not ((_ is O_node) a!1)))
      )
      CHC_COMP_FALSE
    )
  )
)
(assert
  (forall ( (A Int) (B Int) (C Int) (D Int) (E Int) (F Heap) ) 
    (=>
      (and
        (inv_main50 F E D C B A)
        (let ((a!1 (ite (and (not (<= A 0)) (>= (HeapSize F) A))
                (select (HeapContents F) A)
                defObj)))
  (not ((_ is O_node) a!1)))
      )
      CHC_COMP_FALSE
    )
  )
)
(assert
  (forall ( (A Int) (B Int) (C Int) (D Int) (E Int) (F Int) (G Heap) ) 
    (=>
      (and
        (inv_main57 G F E D C B A)
        (let ((a!1 (ite (and (not (<= B 0)) (>= (HeapSize G) B))
                (select (HeapContents G) B)
                defObj)))
  (not ((_ is O_node) a!1)))
      )
      CHC_COMP_FALSE
    )
  )
)
(assert
  (forall ( (A Int) (B Int) (C Int) (D Int) (E Int) (F Int) (G Int) (H Heap) ) 
    (=>
      (and
        (inv_main58 H G F E D C B A)
        (let ((a!1 (ite (and (not (<= C 0)) (>= (HeapSize H) C))
                (select (HeapContents H) C)
                defObj)))
  (not ((_ is O_node) a!1)))
      )
      CHC_COMP_FALSE
    )
  )
)
(assert
  (forall ( (A Int) (B Int) (C Int) (D Int) (E Int) (F Int) (G Int) (H Heap) ) 
    (=>
      (and
        (inv_main70 H G F E D C B A)
        (let ((a!1 (ite (and (not (<= A 0)) (>= (HeapSize H) A))
                (select (HeapContents H) A)
                defObj)))
  (not ((_ is O_node) a!1)))
      )
      CHC_COMP_FALSE
    )
  )
)
(assert
  (forall ( (A Int) (B Int) (C Int) (D Int) (E Int) (F Int) (G Heap) ) 
    (=>
      (and
        (inv_main73 G F E D C B A)
        true
      )
      CHC_COMP_FALSE
    )
  )
)
(assert
  (forall ( (CHC_COMP_UNUSED Bool) ) 
    (=>
      (and
        CHC_COMP_FALSE
      )
      false
    )
  )
)

(check-sat)
(exit)
